# Adapted from Peter Larsson's VASP TestSuite https://www.nsc.liu.se/~pla/vasptest
System=CeO2 : fcc
ISTART=0
ICHARG=2
PREC=Normal
ENCUT=400.00
EDIFF=0.1E-04
LREAL=Auto
LCHARG=F
LWAVE=F
NCORE=1 
LDAU=.TRUE. #Switch on the L(S)DA+U
LDAUTYPE=2  #Dudarev's approach
LDAUL=3 -1  #Ce and O LDAUL, LDAUU and LDAUJ must be specified for all atomic species
LDAUU=5.5 0 #Ce and O
LDAUJ=0 0   #Ce and O
LMAXMIX=6 
ISMEAR=0
SIGMA=0.1
