K-Points 
 0 
Monkhorst Pack
 1  1  1 
 0  0  0


