Ce O : CeO2 fcc (110)-Surf.: 2x3-cell
 5.401
   2.121320344  0.000000000  0.000000
   0.000000000  2.000000000  0.000000
   0.000000000  0.000000000  4.017767
  36 72
Cart
       0.00000000       0.00000000       0.00000000  T T T
       0.00000000       1.00000000       0.00000000  T T T
       0.70710677       0.00000000       0.00000000  T T T
       0.70710677       1.00000000       0.00000000  T T T
       1.41421354       0.00000000       0.00000000  T T T
       1.41421354       1.00000000       0.00000000  T T T
       0.35355338      -0.50000000       0.35355338  T T T
       0.35355338       0.50000000       0.35355338  T T T
       1.06066012      -0.50000000       0.35355338  T T T
       1.06066012       0.50000000       0.35355338  T T T
       1.76776695      -0.50000000       0.35355338  T T T
       1.76776695       0.50000000       0.35355338  T T T
       0.00000000       0.00000000       0.70710677  T T T
       0.00000000       1.00000000       0.70710677  T T T
       0.70710677       0.00000000       0.70710677  T T T
       0.70710677       1.00000000       0.70710677  T T T
       1.41421354       0.00000000       0.70710677  T T T
       1.41421354       1.00000000       0.70710677  T T T
       0.35355338      -0.50000000       1.06066012  T T T
       0.35355338       0.50000000       1.06066012  T T T
       1.06066012      -0.50000000       1.06066012  T T T
       1.06066012       0.50000000       1.06066012  T T T
       1.76776695      -0.50000000       1.06066012  T T T
       1.76776695       0.50000000       1.06066012  T T T
       0.00000000       0.00000000       1.41421354  T T T
       0.00000000       1.00000000       1.41421354  T T T
       0.70710677       0.00000000       1.41421354  T T T
       0.70710677       1.00000000       1.41421354  T T T
       1.41421354       0.00000000       1.41421354  T T T
       1.41421354       1.00000000       1.41421354  T T T
       0.35355335      -0.50000000       1.76776695  T T T
       0.35355335       0.50000000       1.76776695  T T T
       1.06066012      -0.50000000       1.76776695  T T T
       1.06066012       0.50000000       1.76776695  T T T
       1.76776695      -0.50000000       1.76776695  T T T
       1.76776695       0.50000000       1.76776695  T T T
      -0.35355338      -0.25000000       0.00000000  T T T
      -0.35355338       0.75000000       0.00000000  T T T
       0.35355338      -0.25000000       0.00000000  T T T
       0.35355338       0.75000000       0.00000000  T T T
       1.06066012      -0.25000000       0.00000000  T T T
       1.06066012       0.75000000       0.00000000  T T T
      -0.35355338       0.25000000       0.00000000  T T T
      -0.35355338       1.25000000       0.00000000  T T T
       0.35355338       0.25000000       0.00000000  T T T
       0.35355338       1.25000000       0.00000000  T T T
       1.06066012       0.25000000       0.00000000  T T T
       1.06066012       1.25000000       0.00000000  T T T
       0.00000000      -0.75000000       0.35355338  T T T
       0.00000000       0.25000000       0.35355338  T T T
       0.70710677      -0.75000000       0.35355338  T T T
       0.70710677       0.25000000       0.35355338  T T T
       1.41421354      -0.75000000       0.35355338  T T T
       1.41421354       0.25000000       0.35355338  T T T
       0.00000000      -0.25000000       0.35355338  T T T
       0.00000000       0.75000000       0.35355338  T T T
       0.70710677      -0.25000000       0.35355338  T T T
       0.70710677       0.75000000       0.35355338  T T T
       1.41421354      -0.25000000       0.35355338  T T T
       1.41421354       0.75000000       0.35355338  T T T
      -0.35355335      -0.25000000       0.70710677  T T T
      -0.35355335       0.75000000       0.70710677  T T T
       0.35355341      -0.25000000       0.70710677  T T T
       0.35355341       0.75000000       0.70710677  T T T
       1.06066012      -0.25000000       0.70710677  T T T
       1.06066012       0.75000000       0.70710677  T T T
      -0.35355335       0.25000000       0.70710677  T T T
      -0.35355335       1.25000000       0.70710677  T T T
       0.35355341       0.25000000       0.70710677  T T T
       0.35355341       1.25000000       0.70710677  T T T
       1.06066012       0.25000000       0.70710677  T T T
       1.06066012       1.25000000       0.70710677  T T T
       0.00000000      -0.75000000       1.06066012  T T T
       0.00000000       0.25000000       1.06066012  T T T
       0.70710677      -0.75000000       1.06066012  T T T
       0.70710677       0.25000000       1.06066012  T T T
       1.41421354      -0.75000000       1.06066012  T T T
       1.41421354       0.25000000       1.06066012  T T T
       0.00000000      -0.25000000       1.06066012  T T T
       0.00000000       0.75000000       1.06066012  T T T
       0.70710677      -0.25000000       1.06066012  T T T
       0.70710677       0.75000000       1.06066012  T T T
       1.41421354      -0.25000000       1.06066012  T T T
       1.41421354       0.75000000       1.06066012  T T T
      -0.35355341      -0.25000000       1.41421354  T T T
      -0.35355341       0.75000000       1.41421354  T T T
       0.35355335      -0.25000000       1.41421354  T T T
       0.35355335       0.75000000       1.41421354  T T T
       1.06066012      -0.25000000       1.41421354  T T T
       1.06066012       0.75000000       1.41421354  T T T
      -0.35355341       0.25000000       1.41421354  T T T
      -0.35355341       1.25000000       1.41421354  T T T
       0.35355335       0.25000000       1.41421354  T T T
       0.35355335       1.25000000       1.41421354  T T T
       1.06066012       0.25000000       1.41421354  T T T
       1.06066012       1.25000000       1.41421354  T T T
       0.00000000      -0.75000000       1.76776695  T T T
       0.00000000       0.25000000       1.76776695  T T T
       0.70710677      -0.75000000       1.76776695  T T T
       0.70710677       0.25000000       1.76776695  T T T
       1.41421354      -0.75000000       1.76776695  T T T
       1.41421354       0.25000000       1.76776695  T T T
       0.00000000      -0.25000000       1.76776695  T T T
       0.00000000       0.75000000       1.76776695  T T T
       0.70710677      -0.25000000       1.76776695  T T T
       0.70710677       0.75000000       1.76776695  T T T
       1.41421354      -0.25000000       1.76776695  T T T
       1.41421354       0.75000000       1.76776695  T T T


